# ================= Initialization ====================
units           metal
dimension       3
boundary        p p f
atom_style      atomic

# ================= Structure Load ====================
read_data       cl_si.data   # Si 기판이 있는 구조 파일 (type 1)

# ================= Potential =========================
pair_style      lj/cut 10.0
pair_coeff      1 1 0.0306 3.8       # Si-Si
pair_coeff      2 2 0.01 2.5       # 증착 입자끼리
pair_coeff      1 2 0.0 3.0       # Si와 증착 입자간 상호작용 제거

mass            1 28.085          # Si
mass            2 26.981          # 증착 원자 (예: Al)

# ================= Groups ============================
group           substrate type 1
group           addatoms type 2
region          mobile block INF INF INF INF 6 INF
group		    mobile region mobile


compute		    add addatoms temp
compute_modify	add dynamic/dof yes extra/dof 0


fix	 	        1 addatoms nve
fix		        2 mobile langevin 1.0 1.0 0.1 587283
fix		        3 mobile nve
# ================= Deposition ========================
region          slab block 0 38 0 38 13 14
fix             dep addatoms deposit 100 2 100 12345 region slab vz -1.0 -1.0
fix             5 addatoms wall/reflect zhi EDGE
# ================= Output ============================
dump            1 all custom 100 dump.deposit.xyz id type x y z
dump_modify     1 sort id

thermo_style    custom step atoms temp epair etotal
thermo          200

# ================= Run ===============================
run             15000

