##=======================================================================
#                       Initialization
#=======================================================================

  units            metal
  boundary         p p f
  atom_modify      map yes
  newton           on
#====================== Structure ======================================  
  read_data        ./cl_si.data
#====================== Potential ======================================
  pair_style       mace no_domain_decomposition
  pair_coeff       * * ./mace.model-lammps.pt Si O

  mass 1 28.095
  mass 2 26.981

  region dummy_o block 0 0 0 0 100 100 units box
  create_atoms 2 single 0 0 100 units box
  delete_atoms region dummy_o


  group		       addatoms type 2
  region           mobile block INF INF INF INF 6 INF
  group		       mobile region mobile

  compute		   add addatoms temp
  compute_modify   add dynamic/dof yes extra/dof 0

  fix		       1 addatoms nve
  fix		       2 mobile langevin 300 500 10 587283
  fix		       3 mobile nve

  region           slab block 0 40 0 40 17 18
  fix		       4 addatoms deposit 100 2 50 12345 region slab vz -5.0 -5.0
  fix		       5 addatoms wall/reflect zhi EDGE
  
  thermo_style	   custom step atoms temp epair etotal press
  thermo           100
  thermo_modify	   temp add
  
  dump 1 all custom 10 dump.oxidation.xyz id type x y z 
  run              10000
